Geographic Exponential Decay
20 49 209 216 112 302 210 6 90 234 252 169 66 59 178 103 7 137 318 42 148
p edge 320 319
e 0 28 11.0
e 0 226 10.0
e 1 12 4.0
e 1 0 20.0
e 2 117 5.0
e 2 1 1.0
e 3 198 2.0
e 3 2 1.0
e 4 253 13.0
e 4 3 2.0
e 5 35 4.0
e 5 199 2.0
e 5 4 3.0
e 6 263 10.0
e 6 200 78.0
e 6 294 24.0
e 6 250 83.0
e 6 246 40.0
e 6 5 20.0
e 7 227 76.0
e 7 38 84.0
e 7 24 29.0
e 7 318 52.0
e 7 194 100.0
e 7 6 92.0
e 8 170 1.0
e 8 7 13.0
e 9 188 2.0
e 9 8 10.0
e 10 236 3.0
e 10 9 10.0
e 11 60 1.0
e 11 10 1.0
e 13 58 4.0
e 13 11 2.0
e 14 15 3.0
e 14 13 2.0
e 16 33 1.0
e 16 14 1.0
e 17 266 5.0
e 17 16 2.0
e 18 184 8.0
e 18 17 4.0
e 19 185 1.0
e 19 18 2.0
e 20 131 5.0
e 20 19 1.0
e 21 70 3.0
e 21 20 1.0
e 22 130 21.0
e 22 186 22.0
e 22 21 11.0
e 23 171 5.0
e 23 22 7.0
e 25 61 4.0
e 25 23 2.0
e 26 27 2.0
e 26 25 1.0
e 29 129 6.0
e 29 26 2.0
e 30 56 2.0
e 30 29 2.0
e 31 53 3.0
e 31 30 1.0
e 32 176 8.0
e 32 114 13.0
e 32 31 21.0
e 34 212 22.0
e 36 102 2.0
e 36 32 12.0
e 37 187 9.0
e 37 39 17.0
e 37 36 20.0
e 40 274 2.0
e 40 37 5.0
e 41 97 1.0
e 41 40 2.0
e 42 52 60.0
e 42 43 9.0
e 42 239 18.0
e 42 44 37.0
e 42 276 99.0
e 42 41 2.0
e 45 219 2.0
e 45 42 14.0
e 46 249 1.0
e 46 45 1.0
e 47 240 11.0
e 47 46 2.0
e 48 314 1.0
e 48 47 2.0
e 49 277 78.0
e 49 295 95.0
e 49 163 55.0
e 49 242 65.0
e 49 178 20.0
e 49 48 21.0
e 50 51 7.0
e 50 49 28.0
e 54 55 1.0
e 54 50 3.0
e 57 310 1.0
e 57 54 1.0
e 59 256 41.0
e 59 62 74.0
e 59 280 19.0
e 59 95 74.0
e 59 284 41.0
e 59 57 74.0
e 63 312 1.0
e 63 59 76.0
e 64 126 1.0
e 64 63 1.0
e 65 88 1.0
e 65 64 6.0
e 66 265 55.0
e 66 206 19.0
e 66 175 91.0
e 66 309 43.0
e 66 172 25.0
e 66 65 27.0
e 67 68 2.0
e 67 66 63.0
e 69 104 1.0
e 69 67 5.0
e 71 267 28.0
e 71 82 35.0
e 71 229 16.0
e 71 69 15.0
e 72 94 3.0
e 72 71 26.0
e 73 201 2.0
e 73 72 3.0
e 74 103 82.0
e 74 73 4.0
e 75 76 1.0
e 75 74 3.0
e 77 248 4.0
e 77 75 2.0
e 78 83 1.0
e 78 77 5.0
e 79 80 8.0
e 79 78 5.0
e 81 84 1.0
e 81 79 1.0
e 85 202 5.0
e 85 81 1.0
e 86 87 3.0
e 86 85 1.0
e 89 90 72.0
e 89 86 10.0
e 90 237 86.0
e 90 91 14.0
e 90 257 91.0
e 90 225 37.0
e 92 154 11.0
e 92 89 8.0
e 93 311 15.0
e 93 137 42.0
e 93 92 17.0
e 96 98 2.0
e 96 93 6.0
e 99 275 1.0
e 99 96 2.0
e 100 209 65.0
e 101 285 1.0
e 101 99 1.0
e 103 118 43.0
e 103 127 2.0
e 103 105 87.0
e 103 179 96.0
e 105 111 46.0
e 105 270 20.0
e 106 177 4.0
e 106 101 1.0
e 107 203 5.0
e 107 106 1.0
e 108 156 11.0
e 108 204 4.0
e 108 107 21.0
e 109 178 21.0
e 110 112 13.0
e 110 108 10.0
e 112 228 81.0
e 112 196 32.0
e 112 113 22.0
e 112 115 64.0
e 116 283 1.0
e 116 110 1.0
e 119 120 1.0
e 119 116 5.0
e 121 209 13.0
e 122 123 5.0
e 122 119 1.0
e 124 125 2.0
e 124 122 6.0
e 128 132 2.0
e 128 124 1.0
e 133 134 1.0
e 133 128 3.0
e 135 136 1.0
e 135 133 2.0
e 137 286 82.0
e 137 271 14.0
e 137 192 77.0
e 137 287 7.0
e 138 230 5.0
e 138 135 1.0
e 139 195 6.0
e 139 138 7.0
e 140 141 2.0
e 140 139 8.0
e 142 268 1.0
e 142 140 1.0
e 143 158 1.0
e 143 142 2.0
e 144 145 9.0
e 144 143 1.0
e 146 235 3.0
e 146 144 3.0
e 147 148 85.0
e 147 146 1.0
e 148 149 40.0
e 148 213 35.0
e 148 258 69.0
e 148 289 73.0
e 150 313 1.0
e 150 147 3.0
e 151 264 1.0
e 151 150 1.0
e 152 153 3.0
e 152 151 2.0
e 155 157 1.0
e 155 152 2.0
e 159 160 5.0
e 159 155 2.0
e 161 162 1.0
e 161 159 1.0
e 164 183 2.0
e 164 161 1.0
e 165 311 10.0
e 166 167 6.0
e 166 164 1.0
e 168 169 63.0
e 169 275 94.0
e 169 272 86.0
e 169 197 49.0
e 169 173 27.0
e 174 178 3.0
e 178 180 82.0
e 178 181 45.0
e 182 300 5.0
e 182 166 1.0
e 184 288 20.0
e 189 190 1.0
e 189 182 2.0
e 191 193 3.0
e 191 189 2.0
e 205 207 2.0
e 205 191 1.0
e 208 269 3.0
e 208 205 3.0
e 209 210 27.0
e 209 211 35.0
e 209 212 81.0
e 210 253 67.0
e 210 214 90.0
e 210 215 37.0
e 210 216 23.0
e 216 217 87.0
e 216 218 10.0
e 216 273 32.0
e 216 220 3.0
e 221 222 1.0
e 221 208 4.0
e 223 278 15.0
e 223 221 7.0
e 224 228 24.0
e 231 232 1.0
e 231 223 5.0
e 233 234 95.0
e 234 308 54.0
e 234 238 71.0
e 234 278 28.0
e 234 241 90.0
e 238 243 10.0
e 244 245 1.0
e 244 231 3.0
e 247 251 3.0
e 247 244 3.0
e 252 254 78.0
e 252 259 17.0
e 252 255 73.0
e 252 281 80.0
e 252 260 98.0
e 252 247 92.0
e 259 261 18.0
e 262 290 1.0
e 262 252 1.0
e 279 282 8.0
e 279 262 4.0
e 291 292 4.0
e 291 279 1.0
e 293 296 1.0
e 293 291 1.0
e 297 298 1.0
e 297 293 4.0
e 299 301 1.0
e 299 297 1.0
e 302 303 85.0
e 302 304 97.0
e 302 305 12.0
e 302 306 49.0
e 302 307 53.0
e 302 299 62.0
e 315 316 2.0
e 315 302 59.0
e 317 318 81.0
e 318 319 18.0
